NAME : TSP_INST.73682.tour
COMMENT : Length = 73682
COMMENT : Found by LKH [Keld Helsgaun] Sat Oct 18 14:37:02 2025
TYPE : TOUR
DIMENSION : 152
TOUR_SECTION
1
16
2
37
33
32
15
3
31
30
29
14
4
38
28
27
13
5
26
25
24
12
6
39
23
22
11
7
20
21
19
10
8
9
17
18
40
41
60
61
62
63
64
59
58
42
43
57
65
66
67
68
56
55
44
45
54
69
70
46
52
53
72
71
79
97
98
99
90
80
114
113
100
89
81
101
102
103
88
82
112
111
104
87
83
105
106
107
86
84
85
108
109
110
117
140
139
141
142
143
138
137
118
119
136
135
144
145
146
134
133
120
121
132
131
147
148
149
130
129
122
123
128
127
151
150
152
126
125
124
116
115
96
91
78
92
95
94
93
77
74
76
50
49
48
75
73
51
47
34
36
35
-1
EOF
